p tw 288 1024
1 33
2 34
3 35
4 36
5 37
6 38
7 39
8 40
9 41
10 42
11 43
12 44
13 45
14 46
15 47
16 48
17 49
18 50
19 51
20 52
21 53
22 54
23 55
24 56
25 57
26 58
27 59
28 60
29 61
30 62
31 63
32 64
33 85
33 98
33 121
33 123
33 124
34 108
34 109
34 110
34 111
34 112
35 84
35 108
35 118
35 121
35 122
36 77
36 114
36 139
36 142
36 143
37 65
37 80
37 81
37 82
37 83
38 75
38 130
38 136
38 137
38 138
39 111
39 127
39 154
39 156
39 157
40 73
40 94
40 123
40 149
40 151
41 75
41 76
41 77
41 78
41 79
42 113
42 116
42 118
42 119
42 120
43 81
43 88
43 89
43 90
43 91
44 92
44 93
44 94
44 95
44 96
45 102
45 109
45 125
45 130
45 131
46 134
46 137
46 156
46 158
46 160
47 88
47 93
47 97
47 116
47 117
48 110
48 140
48 152
48 154
48 155
49 76
49 99
49 139
49 140
49 141
50 66
50 92
50 101
50 106
50 107
51 101
51 102
51 103
51 104
51 105
52 65
52 66
52 67
52 68
52 69
53 72
53 126
53 144
53 147
53 148
54 86
54 89
54 132
54 134
54 135
55 67
55 70
55 113
55 114
55 115
56 90
56 142
56 144
56 145
56 146
57 104
57 136
57 145
57 152
57 153
58 68
58 71
58 103
58 132
58 133
59 78
59 106
59 119
59 149
59 150
60 95
60 128
60 147
60 158
60 159
61 125
61 126
61 127
61 128
61 129
62 80
62 84
62 85
62 86
62 87
63 70
63 71
63 72
63 73
63 74
64 82
64 97
64 98
64 99
64 100
65 66
65 67
65 68
65 69
65 80
65 81
65 82
65 83
66 67
66 68
66 69
66 92
66 101
66 106
66 107
67 68
67 69
67 70
67 113
67 114
67 115
68 69
68 71
68 103
68 132
68 133
69 161
69 162
69 163
69 164
69 165
70 71
70 72
70 73
70 74
70 113
70 114
70 115
71 72
71 73
71 74
71 103
71 132
71 133
72 73
72 74
72 126
72 144
72 147
72 148
73 74
73 94
73 123
73 149
73 151
74 166
74 167
74 168
74 169
74 170
75 76
75 77
75 78
75 79
75 130
75 136
75 137
75 138
76 77
76 78
76 79
76 99
76 139
76 140
76 141
77 78
77 79
77 114
77 139
77 142
77 143
78 79
78 106
78 119
78 149
78 150
79 171
79 172
79 173
79 174
79 175
80 81
80 82
80 83
80 84
80 85
80 86
80 87
81 82
81 83
81 88
81 89
81 90
81 91
82 83
82 97
82 98
82 99
82 100
83 161
83 176
83 177
83 178
83 179
84 85
84 86
84 87
84 108
84 118
84 121
84 122
85 86
85 87
85 98
85 121
85 123
85 124
86 87
86 89
86 132
86 134
86 135
87 176
87 180
87 181
87 182
87 183
88 89
88 90
88 91
88 93
88 97
88 116
88 117
89 90
89 91
89 132
89 134
89 135
90 91
90 142
90 144
90 145
90 146
91 177
91 184
91 185
91 186
91 187
92 93
92 94
92 95
92 96
92 101
92 106
92 107
93 94
93 95
93 96
93 97
93 116
93 117
94 95
94 96
94 123
94 149
94 151
95 96
95 128
95 147
95 158
95 159
96 188
96 189
96 190
96 191
96 192
97 98
97 99
97 100
97 116
97 117
98 99
98 100
98 121
98 123
98 124
99 100
99 139
99 140
99 141
100 178
100 193
100 194
100 195
100 196
101 102
101 103
101 104
101 105
101 106
101 107
102 103
102 104
102 105
102 109
102 125
102 130
102 131
103 104
103 105
103 132
103 133
104 105
104 136
104 145
104 152
104 153
105 197
105 198
105 199
105 200
105 201
106 107
106 119
106 149
106 150
107 162
107 188
107 197
107 202
107 203
108 109
108 110
108 111
108 112
108 118
108 121
108 122
109 110
109 111
109 112
109 125
109 130
109 131
110 111
110 112
110 140
110 152
110 154
110 155
111 112
111 127
111 154
111 156
111 157
112 204
112 205
112 206
112 207
112 208
113 114
113 115
113 116
113 118
113 119
113 120
114 115
114 139
114 142
114 143
115 163
115 166
115 209
115 210
115 211
116 117
116 118
116 119
116 120
117 184
117 189
117 193
117 212
117 213
118 119
118 120
118 121
118 122
119 120
119 149
119 150
120 209
120 212
120 214
120 215
120 216
121 122
121 123
121 124
122 180
122 204
122 214
122 217
122 218
123 124
123 149
123 151
124 181
124 194
124 217
124 219
124 220
125 126
125 127
125 128
125 129
125 130
125 131
126 127
126 128
126 129
126 144
126 147
126 148
127 128
127 129
127 154
127 156
127 157
128 129
128 147
128 158
128 159
129 221
129 222
129 223
129 224
129 225
130 131
130 136
130 137
130 138
131 198
131 205
131 221
131 226
131 227
132 133
132 134
132 135
133 164
133 167
133 199
133 228
133 229
134 135
134 137
134 156
134 158
134 160
135 182
135 185
135 228
135 230
135 231
136 137
136 138
136 145
136 152
136 153
137 138
137 156
137 158
137 160
138 171
138 226
138 232
138 233
138 234
139 140
139 141
139 142
139 143
140 141
140 152
140 154
140 155
141 172
141 195
141 235
141 236
141 237
142 143
142 144
142 145
142 146
143 173
143 210
143 235
143 238
143 239
144 145
144 146
144 147
144 148
145 146
145 152
145 153
146 186
146 238
146 240
146 241
146 242
147 148
147 158
147 159
148 168
148 222
148 240
148 243
148 244
149 150
149 151
150 174
150 202
150 215
150 245
150 246
151 169
151 190
151 219
151 245
151 247
152 153
152 154
152 155
153 200
153 232
153 241
153 248
153 249
154 155
154 156
154 157
155 206
155 236
155 248
155 250
155 251
156 157
156 158
156 160
157 207
157 223
157 250
157 252
157 253
158 159
158 160
159 191
159 224
159 243
159 254
159 255
160 230
160 233
160 252
160 254
160 256
161 162
161 163
161 164
161 165
161 176
161 177
161 178
161 179
162 163
162 164
162 165
162 188
162 197
162 202
162 203
163 164
163 165
163 166
163 209
163 210
163 211
164 165
164 167
164 199
164 228
164 229
165 269
166 167
166 168
166 169
166 170
166 209
166 210
166 211
167 168
167 169
167 170
167 199
167 228
167 229
168 169
168 170
168 222
168 240
168 243
168 244
169 170
169 190
169 219
169 245
169 247
170 258
171 172
171 173
171 174
171 175
171 226
171 232
171 233
171 234
172 173
172 174
172 175
172 195
172 235
172 236
172 237
173 174
173 175
173 210
173 235
173 238
173 239
174 175
174 202
174 215
174 245
174 246
175 280
176 177
176 178
176 179
176 180
176 181
176 182
176 183
177 178
177 179
177 184
177 185
177 186
177 187
178 179
178 193
178 194
178 195
178 196
179 284
180 181
180 182
180 183
180 204
180 214
180 217
180 218
181 182
181 183
181 194
181 217
181 219
181 220
182 183
182 185
182 228
182 230
182 231
183 259
184 185
184 186
184 187
184 189
184 193
184 212
184 213
185 186
185 187
185 228
185 230
185 231
186 187
186 238
186 240
186 241
186 242
187 278
188 189
188 190
188 191
188 192
188 197
188 202
188 203
189 190
189 191
189 192
189 193
189 212
189 213
190 191
190 192
190 219
190 245
190 247
191 192
191 224
191 243
191 254
191 255
192 277
193 194
193 195
193 196
193 212
193 213
194 195
194 196
194 217
194 219
194 220
195 196
195 235
195 236
195 237
196 257
197 198
197 199
197 200
197 201
197 202
197 203
198 199
198 200
198 201
198 205
198 221
198 226
198 227
199 200
199 201
199 228
199 229
200 201
200 232
200 241
200 248
200 249
201 270
202 203
202 215
202 245
202 246
203 271
204 205
204 206
204 207
204 208
204 214
204 217
204 218
205 206
205 207
205 208
205 221
205 226
205 227
206 207
206 208
206 236
206 248
206 250
206 251
207 208
207 223
207 250
207 252
207 253
208 287
209 210
209 211
209 212
209 214
209 215
209 216
210 211
210 235
210 238
210 239
211 266
212 213
212 214
212 215
212 216
213 274
214 215
214 216
214 217
214 218
215 216
215 245
215 246
216 279
217 218
217 219
217 220
218 286
219 220
219 245
219 247
220 288
221 222
221 223
221 224
221 225
221 226
221 227
222 223
222 224
222 225
222 240
222 243
222 244
223 224
223 225
223 250
223 252
223 253
224 225
224 243
224 254
224 255
225 260
226 227
226 232
226 233
226 234
227 276
228 229
228 230
228 231
229 263
230 231
230 233
230 252
230 254
230 256
231 267
232 233
232 234
232 241
232 248
232 249
233 234
233 252
233 254
233 256
234 283
235 236
235 237
235 238
235 239
236 237
236 248
236 250
236 251
237 272
238 239
238 240
238 241
238 242
239 285
240 241
240 242
240 243
240 244
241 242
241 248
241 249
242 265
243 244
243 254
243 255
244 268
245 246
245 247
246 262
247 281
248 249
248 250
248 251
249 264
250 251
250 252
250 253
251 273
252 253
252 254
252 256
253 282
254 255
254 256
255 261
256 275
